c instancia_15  vars=15  clausulas=25  k=2
p cnf 15 25
15 -4 0
2 -6 0
-11 10 0
14 6 0
-13 -11 0
-15 1 0
-13 -9 0
-13 -7 0
-2 1 0
14 -10 0
-4 -13 0
2 13 0
3 9 0
14 -4 0
4 -2 0
10 11 0
-9 -15 0
8 -9 0
-12 4 0
-6 9 0
-13 -9 0
-3 -8 0
-5 14 0
11 -13 0
8 9 0
